134 300 30 50 44 16 44 50 32 16 40 33 37 34 44 24 28 30 31 36 37 38 28 41 15 40 21 46 49 42 17 24 22 37 23 15 46 19 14 27 25 44 50 14 30 43 28 48 24 10 35 10 39 13 41 46 45 14 41 43 48 49 18 19 37 31 26 32 42 33 10 17 26 11 23 48 46 43 45 19 43 32 19 31 37 12 28 31 18 21 23 17 21 31 28 48 13 44 32 46 26 32 14 45 34 29 42 31 21 39 41 13 22 11 37 49 15 14 29 23 25 42 32 38 24 50 36 29 46 17 24 21 41 30 17 26 